
Gurobi 6.0.4 (win64) logging started 06/18/15 16:07:46

Read LP format model from file C:\MT\repository\VRPTWMS\instances\mip\freight\N6-C_DV10-C_SV50_F14_9_No_1.lp
Reading time = 0.00 seconds
(null): 217 rows, 141 columns, 849 nonzeros
Optimize a model with 217 rows, 141 columns and 849 nonzeros
Model has 294 quadratic constraints
Coefficient statistics:
  Matrix range    [1e+00, 1e+06]
  Objective range [1e+05, 1e+07]
  Bounds range    [1e+00, 1e+06]
  RHS range       [1e+00, 1e+06]
Presolve removed 30 rows and 15 columns
Presolve time: 0.02s
Presolved: 887 rows, 494 columns, 3904 nonzeros
Variable types: 332 continuous, 162 integer (123 binary)
Found heuristic solution: objective 6.346480e+07

Root relaxation: objective 1.142924e+07, 81 iterations, 0.01 seconds

    Nodes    |    Current Node    |     Objective Bounds      |     Work
 Expl Unexpl |  Obj  Depth IntInf | Incumbent    BestBd   Gap | It/Node Time

     0     0 1.1429e+07    0   38 6.3465e+07 1.1429e+07  82.0%     -    0s
H    0     0                    3.222800e+07 1.1429e+07  64.5%     -    0s
     0     0 1.1561e+07    0   13 3.2228e+07 1.1561e+07  64.1%     -    0s
     0     0 1.1562e+07    0   16 3.2228e+07 1.1562e+07  64.1%     -    0s
H    0     0                    2.214740e+07 1.1562e+07  47.8%     -    0s
     0     0 1.1562e+07    0   14 2.2147e+07 1.1562e+07  47.8%     -    0s
     0     2 1.1562e+07    0   14 2.2147e+07 1.1562e+07  47.8%     -    0s
*  127    37              17    2.198090e+07 1.1685e+07  46.8%  19.1    0s

Cutting planes:
  Cover: 44
  Implied bound: 78
  Clique: 12
  MIR: 4
  GUB cover: 4

Explored 1202 nodes (31908 simplex iterations) in 0.69 seconds
Thread count was 2 (of 4 available processors)

Optimal solution found (tolerance 1.00e-04)
Best objective 2.198090000000e+07, best bound 2.198090000000e+07, gap 0.0%
k_c1	40000.0
k_c2	70000.0
k_c3	50000.0
k_c4	20000.0
k_c5	100000.0
k_c6	100000.0
k_dN	-0.0
kDash_c1	20000.0
kDash_c2	50000.0
kDash_c3	-0.0
kDash_c4	-0.0
kDash_c5	40000.0
kDash_c6	70000.0
o_1	-0.0
o_2	0.0
o_3	-0.0
o_4	0.0
o_5	-0.0
o_6	0.0
p_1	0.0
p_2	0.0
p_3	-0.0
p_4	0.0
p_5	0.0
p_6	0.0
phi_c1	113701.99999999997
phi_c2	111213.00000000007
phi_c3	104590.00000000006
phi_c4	92868.99999999997
phi_c5	120324.99999999997
phi_c6	128607.0
phi_d0	140000.0
phi_dN	-0.0
pi_c1	-0.0
pi_c2	-0.0
pi_c3	-0.0
pi_c4	-0.0
pi_c5	-0.0
pi_c6	-0.0
pi_dN	-0.0
tauD_c1	400000.0
tauD_c2	175000.0
tauD_c3	782725.0
tauD_c4	650000.0
tauD_c5	73525.0
tauD_c6	50000.0
tauD_d0	-0.0
tauD_dN	1000000.0
tauS_c1	0.0
tauS_c2	0.0
tauS_c3	0.0
tauS_c4	65025.0
tauS_c5	0.0
tauS_c6	17050.0
tauS_d0	-0.0
tauS_dN	-0.0
x_c1_c4	1.0
x_c2_c3	1.0
x_c3_dN	1.0
x_c4_dN	1.0
x_c5_c1	1.0
x_c6_c2	1.0
x_d0_c5	1.0
x_d0_c6	1.0
